572 573 0 1 2 3 4 5 6 7 8 9 10 11 14 15 16 17 18 19 20 568 569 570 474 473 472 471 494 495 470 469 468 467 466 465 464 496 497 463 462 461 452 453 499 500 501 498 502 503 504 505 308 307 305 318 317 321 320 319 306 304 303 301 302 508 507 506 509 510 511 528 529 527 512 513 514 515 516 517 519 518 520 521 522 523 526 525 524 493 492 491 490 486 485 484 483 482 481 480 479 478 477 476 475 567 29 28 27 26 25 24 21 13 12 23 22 31 30 32 36 37 38 35 33 34 558 559 560 561 562 563 565 566 564 549 548 550 551 101 102 100 99 98 96 95 97 94 89 88 87 86 85 90 93 92 91 555 554 553 552 556 557 41 40 39 42 43 44 45 46 47 48 49 50 84 51 52 54 53 55 56 83 82 57 58 59 81 80 79 61 60 63 62 78 77 76 64 75 74 73 72 71 65 66 67 68 70 69 124 125 126 127 128 129 130 131 132 133 134 135 136 137 138 139 140 141 151 150 149 152 148 147 146 142 143 144 145 158 157 159 156 155 153 154 160 161 113 112 114 115 116 117 123 122 121 120 119 118 106 105 104 103 547 546 545 544 543 541 542 107 110 111 109 108 173 174 175 172 170 171 169 168 162 163 167 166 164 165 203 204 202 201 200 199 198 205 206 207 208 209 210 211 212 213 214 215 216 217 223 224 222 221 220 218 219 193 194 195 196 197 184 185 183 181 180 179 182 186 188 187 178 177 176 540 538 539 537 536 535 487 534 488 489 530 531 532 533 231 230 229 228 227 189 190 192 191 226 225 232 233 234 235 236 237 238 239 240 243 244 245 246 247 242 241 248 249 250 251 252 254 253 255 256 257 300 299 258 259 260 261 262 263 264 265 266 298 297 296 295 294 293 270 269 268 267 271 272 273 274 275 292 291 290 289 288 276 277 278 279 282 281 280 287 286 285 284 283 334 335 336 337 338 339 333 332 331 330 340 341 343 344 345 346 364 363 362 347 348 349 350 351 352 415 416 414 413 353 354 355 357 358 359 361 360 401 403 402 356 412 411 410 418 417 419 420 421 422 423 424 425 426 427 428 429 430 432 437 438 436 435 434 433 431 382 386 387 385 383 384 409 408 407 406 405 404 400 399 397 398 370 369 368 367 365 342 366 329 328 327 326 325 324 323 322 373 372 371 396 395 394 393 392 391 388 389 390 381 380 379 378 377 376 375 374 315 314 316 313 309 310 311 312 451 450 441 440 449 448 447 446 442 445 444 443 439 454 455 456 457 458 459 460 571